p wcnf 481 1248
w -2 0.551153 0
w 2 1.814380 0
w -3 0.723296 0
w 3 1.382560 0
w -5 2.246742 0
w 5 0.445089 0
w -6 1.301520 0
w 6 0.768332 0
w -8 0.745958 0
w 8 1.340557 0
w -9 0.507644 0
w 9 1.969883 0
w -11 1.373867 0
w 11 0.727872 0
w -12 1.270224 0
w 12 0.787263 0
w -14 0.852764 0
w 14 1.172657 0
w -15 1.209244 0
w 15 0.826963 0
w -17 2.373437 0
w 17 0.421330 0
w -18 0.507465 0
w 18 1.970578 0
w -20 0.479408 0
w 20 2.085907 0
w -21 1.117019 0
w 21 0.895240 0
w -23 1.940493 0
w 23 0.515333 0
w -24 0.576438 0
w 24 1.734792 0
w -26 0.885784 0
w 26 1.128943 0
w -27 0.988481 0
w 27 1.011653 0
w -29 0.618752 0
w 29 1.616156 0
w -30 1.561592 0
w 30 0.640372 0
w -32 1.084831 0
w 32 0.921803 0
w -33 2.520795 0
w 33 0.396700 0
w -35 0.449602 0
w 35 2.224190 0
w -36 0.440612 0
w 36 2.269569 0
w -38 0.530445 0
w 38 1.885209 0
w -40 1.801229 0
w 40 0.555177 0
w -41 0.421685 0
w 41 2.371436 0
w -43 0.991552 0
w 43 1.008520 0
w -44 0.383434 0
w 44 2.608008 0
w -46 0.372692 0
w 46 2.683178 0
w -47 1.196571 0
w 47 0.835721 0
w -49 1.767220 0
w 49 0.565861 0
w -50 0.877354 0
w 50 1.139791 0
w -52 0.599686 0
w 52 1.667539 0
w -53 2.201056 0
w 53 0.454327 0
w -55 0.454016 0
w 55 2.202564 0
w -56 1.004675 0
w 56 0.995347 0
w -58 2.034396 0
w 58 0.491546 0
w -59 2.491577 0
w 59 0.401352 0
w -61 2.113228 0
w 61 0.473210 0
w -62 0.688261 0
w 62 1.452938 0
w -64 0.626404 0
w 64 1.596413 0
w -65 0.479338 0
w 65 2.086212 0
w -67 1.867656 0
w 67 0.535430 0
w -68 2.668946 0
w 68 0.374680 0
w -70 2.384563 0
w 70 0.419364 0
w -71 0.661037 0
w 71 1.512774 0
w -73 0.757027 0
w 73 1.320957 0
w -74 1.376828 0
w 74 0.726307 0
w -76 2.065096 0
w 76 0.484239 0
w -78 0.401937 0
w 78 2.487953 0
w -79 2.602990 0
w 79 0.384174 0
w -81 1.698649 0
w 81 0.588703 0
w -82 0.443003 0
w 82 2.257323 0
w -84 0.688497 0
w 84 1.452438 0
w -85 0.414989 0
w 85 2.409701 0
w -87 1.731002 0
w 87 0.577700 0
w -88 0.421314 0
w 88 2.373527 0
w -90 2.145331 0
w 90 0.466129 0
w -91 0.828111 0
w 91 1.207567 0
w -93 2.027594 0
w 93 0.493195 0
w -94 1.165767 0
w 94 0.857804 0
w -96 0.875463 0
w 96 1.142253 0
w -97 0.570570 0
w 97 1.752634 0
w -99 1.568859 0
w 99 0.637406 0
w -100 0.677680 0
w 100 1.475622 0
w -102 0.602842 0
w 102 1.658810 0
w -103 2.179547 0
w 103 0.458811 0
w -105 0.707110 0
w 105 1.414207 0
w -106 0.735456 0
w 106 1.359701 0
w -108 0.401009 0
w 108 2.493709 0
w -109 2.070003 0
w 109 0.483091 0
w -111 1.552985 0
w 111 0.643921 0
w -112 0.828674 0
w 112 1.206747 0
w -114 1.397394 0
w 114 0.715618 0
w -116 0.571142 0
w 116 1.750877 0
w -117 0.611945 0
w 117 1.634135 0
w -119 1.562304 0
w 119 0.640080 0
w -120 0.631890 0
w 120 1.582553 0
w -122 0.607931 0
w 122 1.644924 0
w -123 2.216652 0
w 123 0.451131 0
w -125 1.061415 0
w 125 0.942138 0
w -126 0.851732 0
w 126 1.174079 0
w -128 0.688072 0
w 128 1.453337 0
w -129 2.205417 0
w 129 0.453429 0
w -131 0.620820 0
w 131 1.610772 0
w -132 1.044788 0
w 132 0.957132 0
w -134 1.227231 0
w 134 0.814842 0
w -135 0.548422 0
w 135 1.823412 0
w -137 0.433151 0
w 137 2.308665 0
w -138 2.084195 0
w 138 0.479802 0
w -140 1.701824 0
w 140 0.587605 0
w -141 0.772213 0
w 141 1.294979 0
w -143 1.437192 0
w 143 0.695801 0
w -144 0.502356 0
w 144 1.990621 0
w -146 0.907095 0
w 146 1.102421 0
w -147 2.570912 0
w 147 0.388967 0
w -149 1.008660 0
w 149 0.991415 0
w -150 0.736077 0
w 150 1.358554 0
w -152 1.181520 0
w 152 0.846367 0
w -154 0.678280 0
w 154 1.474318 0
w -155 1.081855 0
w 155 0.924338 0
w -157 0.589206 0
w 157 1.697200 0
w -158 1.517874 0
w 158 0.658816 0
w -160 1.205954 0
w 160 0.829219 0
w -161 0.557885 0
w 161 1.792484 0
w -163 0.933917 0
w 163 1.070759 0
w -164 0.927710 0
w 164 1.077923 0
w -166 0.508079 0
w 166 1.968199 0
w -167 0.541851 0
w 167 1.845526 0
w -169 2.216540 0
w 169 0.451154 0
w -170 1.787221 0
w 170 0.559528 0
w -172 0.386035 0
w 172 2.590438 0
w -173 0.615884 0
w 173 1.623684 0
w -175 1.255989 0
w 175 0.796185 0
w -176 0.602179 0
w 176 1.660637 0
w -178 2.557701 0
w 178 0.390976 0
w -179 1.977398 0
w 179 0.505715 0
w -181 0.523057 0
w 181 1.911839 0
w -182 0.904957 0
w 182 1.105025 0
w -184 2.605421 0
w 184 0.383815 0
w -185 0.655559 0
w 185 1.525416 0
w -187 1.635004 0
w 187 0.611619 0
w -188 1.227156 0
w 188 0.814892 0
w -190 0.370006 0
w 190 2.702662 0
w -192 1.076463 0
w 192 0.928968 0
w -193 1.106520 0
w 193 0.903734 0
w -195 0.886298 0
w 195 1.128289 0
w -196 0.698434 0
w 196 1.431774 0
w -198 1.249296 0
w 198 0.800451 0
w -199 0.675608 0
w 199 1.480148 0
w -201 1.384080 0
w 201 0.722502 0
w -202 1.998969 0
w 202 0.500258 0
w -204 0.629738 0
w 204 1.587963 0
w -205 0.553580 0
w 205 1.806423 0
w -207 2.694791 0
w 207 0.371086 0
w -208 1.168929 0
w 208 0.855484 0
w -210 0.892415 0
w 210 1.120555 0
w -211 1.606716 0
w 211 0.622388 0
w -213 1.599492 0
w 213 0.625199 0
w -214 0.552627 0
w 214 1.809540 0
w -216 0.822402 0
w 216 1.215951 0
w -217 2.586176 0
w 217 0.386671 0
w -219 0.980535 0
w 219 1.019852 0
w -220 0.475854 0
w 220 2.101485 0
w -222 0.581244 0
w 222 1.720447 0
w -223 0.949728 0
w 223 1.052933 0
w -225 2.384785 0
w 225 0.419325 0
w -226 1.852054 0
w 226 0.539941 0
w -228 0.393301 0
w 228 2.542583 0
w -230 0.767475 0
w 230 1.302974 0
w -231 1.789717 0
w 231 0.558747 0
w -233 0.392165 0
w 233 2.549948 0
w -234 2.633996 0
w 234 0.379651 0
w -236 0.841560 0
w 236 1.188269 0
w -237 0.729199 0
w 237 1.371368 0
w -239 0.576832 0
w 239 1.733606 0
w -240 0.922359 0
w 240 1.084177 0
w -242 1.529764 0
w 242 0.653696 0
w -243 0.662783 0
w 243 1.508789 0
w -245 0.782668 0
w 245 1.277681 0
w -246 1.485592 0
w 246 0.673132 0
w -248 0.809363 0
w 248 1.235539 0
w -249 2.448788 0
w 249 0.408365 0
w -251 1.966477 0
w 251 0.508524 0
w -252 0.606080 0
w 252 1.649946 0
w -254 0.549895 0
w 254 1.818531 0
w -255 1.198607 0
w 255 0.834302 0
w -257 1.889311 0
w 257 0.529293 0
w -258 2.641266 0
w 258 0.378606 0
w -260 0.810825 0
w 260 1.233311 0
w -261 2.106480 0
w 261 0.474726 0
w -263 1.858218 0
w 263 0.538150 0
w -264 1.712604 0
w 264 0.583906 0
w -266 0.529054 0
w 266 1.890165 0
w -268 0.480192 0
w 268 2.082502 0
w -269 0.622977 0
w 269 1.605195 0
w -271 2.051659 0
w 271 0.487410 0
w -272 1.689198 0
w 272 0.591997 0
w -274 1.671815 0
w 274 0.598152 0
w -275 0.400452 0
w 275 2.497180 0
w -277 0.377458 0
w 277 2.649300 0
w -278 0.677554 0
w 278 1.475898 0
w -280 2.312410 0
w 280 0.432449 0
w -281 0.431620 0
w 281 2.316850 0
w -283 0.739793 0
w 283 1.351730 0
w -284 1.351400 0
w 284 0.739974 0
w -286 1.788380 0
w 286 0.559165 0
w -287 1.779346 0
w 287 0.562004 0
w -289 2.481696 0
w 289 0.402950 0
w -290 0.635202 0
w 290 1.574303 0
w -292 0.783871 0
w 292 1.275720 0
w -293 1.120416 0
w 293 0.892525 0
w -295 0.407716 0
w 295 2.452689 0
w -296 0.605295 0
w 296 1.652088 0
w -298 1.089260 0
w 298 0.918054 0
w -299 1.662199 0
w 299 0.601613 0
w -301 1.745587 0
w 301 0.572873 0
w -302 1.345942 0
w 302 0.742974 0
w -304 0.455887 0
w 304 2.193524 0
w -306 0.678164 0
w 306 1.474569 0
w -307 0.720075 0
w 307 1.388745 0
w -309 1.389568 0
w 309 0.719648 0
w -310 1.889728 0
w 310 0.529177 0
w -312 1.927690 0
w 312 0.518756 0
w -313 2.437858 0
w 313 0.410196 0
w -315 0.408310 0
w 315 2.449118 0
w -316 0.522221 0
w 316 1.914899 0
w -318 2.442034 0
w 318 0.409495 0
w -319 0.741692 0
w 319 1.348269 0
w -321 0.391614 0
w 321 2.553535 0
w -322 1.746748 0
w 322 0.572492 0
w -324 0.584890 0
w 324 1.709722 0
w -325 2.457932 0
w 325 0.406846 0
w -327 0.390612 0
w 327 2.560086 0
w -328 0.453171 0
w 328 2.206671 0
w -330 0.953882 0
w 330 1.048347 0
w -331 0.819349 0
w 331 1.220481 0
w -333 0.378200 0
w 333 2.644102 0
w -334 1.286189 0
w 334 0.777491 0
w -336 0.522389 0
w 336 1.914284 0
w -337 0.412420 0
w 337 2.424714 0
w -339 1.572686 0
w 339 0.635855 0
w -340 0.997853 0
w 340 1.002152 0
w -342 0.678749 0
w 342 1.473298 0
w -344 2.404252 0
w 344 0.415930 0
w -345 0.631750 0
w 345 1.582904 0
w -347 1.306361 0
w 347 0.765485 0
w -348 0.415408 0
w 348 2.407274 0
w -350 1.823250 0
w 350 0.548471 0
w -351 1.064179 0
w 351 0.939692 0
w -353 1.126044 0
w 353 0.888065 0
w -354 0.374266 0
w 354 2.671897 0
w -356 1.729241 0
w 356 0.578288 0
w -357 2.480084 0
w 357 0.403212 0
w -359 0.609530 0
w 359 1.640609 0
w -360 1.734905 0
w 360 0.576400 0
w -362 1.790765 0
w 362 0.558421 0
w -363 0.434342 0
w 363 2.302334 0
w -365 1.224756 0
w 365 0.816489 0
w -366 0.423320 0
w 366 2.362277 0
w -368 0.756778 0
w 368 1.321392 0
w -369 2.634396 0
w 369 0.379594 0
w -371 0.496419 0
w 371 2.014425 0
w -372 1.932237 0
w 372 0.517535 0
w -374 1.402191 0
w 374 0.713170 0
w -375 1.971971 0
w 375 0.507107 0
w -377 0.568565 0
w 377 1.758815 0
w -378 0.890953 0
w 378 1.122394 0
w -380 1.396539 0
w 380 0.716056 0
w -382 1.888891 0
w 382 0.529411 0
w -383 0.905486 0
w 383 1.104380 0
w -385 0.624425 0
w 385 1.601473 0
w -386 2.487537 0
w 386 0.402004 0
w -388 0.439285 0
w 388 2.276428 0
w -389 1.598599 0
w 389 0.625548 0
w -391 1.317268 0
w 391 0.759147 0
w -392 1.898041 0
w 392 0.526859 0
w -394 1.093279 0
w 394 0.914679 0
w -395 0.463760 0
w 395 2.156287 0
w -397 2.538166 0
w 397 0.393985 0
w -398 1.087736 0
w 398 0.919341 0
w -400 0.812449 0
w 400 1.230846 0
w -401 0.682598 0
w 401 1.464991 0
w -403 2.247888 0
w 403 0.444862 0
w -404 1.346453 0
w 404 0.742692 0
w -406 1.871681 0
w 406 0.534279 0
w -407 1.587887 0
w 407 0.629768 0
w -409 2.437526 0
w 409 0.410252 0
w -410 1.726911 0
w 410 0.579069 0
w -412 2.261423 0
w 412 0.442200 0
w -413 2.531926 0
w 413 0.394956 0
w -415 1.403871 0
w 415 0.712316 0
w -416 1.140745 0
w 416 0.876620 0
w -418 1.294334 0
w 418 0.772598 0
w -420 2.040485 0
w 420 0.490080 0
w -421 0.514672 0
w 421 1.942987 0
w -423 0.630285 0
w 423 1.586585 0
w -424 2.068790 0
w 424 0.483374 0
w -426 0.746659 0
w 426 1.339300 0
w -427 2.131678 0
w 427 0.469114 0
w -429 0.720798 0
w 429 1.387351 0
w -430 0.421902 0
w 430 2.370221 0
w -432 1.277129 0
w 432 0.783006 0
w -433 0.603290 0
w 433 1.657578 0
w -435 0.979320 0
w 435 1.021117 0
w -436 1.156123 0
w 436 0.864960 0
w -438 1.574164 0
w 438 0.635258 0
w -439 1.816781 0
w 439 0.550424 0
w -441 1.357013 0
w 441 0.736912 0
w -442 1.503872 0
w 442 0.664950 0
w -444 1.408827 0
w 444 0.709811 0
w -445 0.406653 0
w 445 2.459098 0
w -447 0.710548 0
w 447 1.407364 0
w -448 0.464549 0
w 448 2.152626 0
w -450 2.196089 0
w 450 0.455355 0
w -451 2.384351 0
w 451 0.419401 0
w -453 0.781762 0
w 453 1.279162 0
w -454 0.410662 0
w 454 2.435091 0
w -456 1.401714 0
w 456 0.713412 0
w -458 0.520114 0
w 458 1.922655 0
w -460 1.813063 0
w 460 0.551553 0
w -462 1.831385 0
w 462 0.546035 0
w -464 0.617691 0
w 464 1.618932 0
w -466 1.162053 0
w 466 0.860546 0
w -468 0.753255 0
w 468 1.327572 0
w -470 1.170596 0
w 470 0.854265 0
w -472 0.381767 0
w 472 2.619402 0
w -474 1.948132 0
w 474 0.513312 0
w -476 1.647482 0
w 476 0.606987 0
w -478 1.040386 0
w 478 0.961182 0
w -480 1.101305 0
w 480 0.908014 0
2 1 4 0
2 -1 -4 0
-2 1 -4 0
-2 -1 4 0
3 1 39 0
3 -1 -39 0
-3 1 -39 0
-3 -1 39 0
5 4 7 0
5 -4 -7 0
-5 4 -7 0
-5 -4 7 0
6 4 42 0
6 -4 -42 0
-6 4 -42 0
-6 -4 42 0
8 7 10 0
8 -7 -10 0
-8 7 -10 0
-8 -7 10 0
9 7 45 0
9 -7 -45 0
-9 7 -45 0
-9 -7 45 0
11 10 13 0
11 -10 -13 0
-11 10 -13 0
-11 -10 13 0
12 10 48 0
12 -10 -48 0
-12 10 -48 0
-12 -10 48 0
14 13 16 0
14 -13 -16 0
-14 13 -16 0
-14 -13 16 0
15 13 51 0
15 -13 -51 0
-15 13 -51 0
-15 -13 51 0
17 16 19 0
17 -16 -19 0
-17 16 -19 0
-17 -16 19 0
18 16 54 0
18 -16 -54 0
-18 16 -54 0
-18 -16 54 0
20 19 22 0
20 -19 -22 0
-20 19 -22 0
-20 -19 22 0
21 19 57 0
21 -19 -57 0
-21 19 -57 0
-21 -19 57 0
23 22 25 0
23 -22 -25 0
-23 22 -25 0
-23 -22 25 0
24 22 60 0
24 -22 -60 0
-24 22 -60 0
-24 -22 60 0
26 25 28 0
26 -25 -28 0
-26 25 -28 0
-26 -25 28 0
27 25 63 0
27 -25 -63 0
-27 25 -63 0
-27 -25 63 0
29 28 31 0
29 -28 -31 0
-29 28 -31 0
-29 -28 31 0
30 28 66 0
30 -28 -66 0
-30 28 -66 0
-30 -28 66 0
32 31 34 0
32 -31 -34 0
-32 31 -34 0
-32 -31 34 0
33 31 69 0
33 -31 -69 0
-33 31 -69 0
-33 -31 69 0
35 34 37 0
35 -34 -37 0
-35 34 -37 0
-35 -34 37 0
36 34 72 0
36 -34 -72 0
-36 34 -72 0
-36 -34 72 0
38 37 75 0
38 -37 -75 0
-38 37 -75 0
-38 -37 75 0
40 39 42 0
40 -39 -42 0
-40 39 -42 0
-40 -39 42 0
41 39 77 0
41 -39 -77 0
-41 39 -77 0
-41 -39 77 0
43 42 45 0
43 -42 -45 0
-43 42 -45 0
-43 -42 45 0
44 42 80 0
44 -42 -80 0
-44 42 -80 0
-44 -42 80 0
46 45 48 0
46 -45 -48 0
-46 45 -48 0
-46 -45 48 0
47 45 83 0
47 -45 -83 0
-47 45 -83 0
-47 -45 83 0
49 48 51 0
49 -48 -51 0
-49 48 -51 0
-49 -48 51 0
50 48 86 0
50 -48 -86 0
-50 48 -86 0
-50 -48 86 0
52 51 54 0
52 -51 -54 0
-52 51 -54 0
-52 -51 54 0
53 51 89 0
53 -51 -89 0
-53 51 -89 0
-53 -51 89 0
55 54 57 0
55 -54 -57 0
-55 54 -57 0
-55 -54 57 0
56 54 92 0
56 -54 -92 0
-56 54 -92 0
-56 -54 92 0
58 57 60 0
58 -57 -60 0
-58 57 -60 0
-58 -57 60 0
59 57 95 0
59 -57 -95 0
-59 57 -95 0
-59 -57 95 0
61 60 63 0
61 -60 -63 0
-61 60 -63 0
-61 -60 63 0
62 60 98 0
62 -60 -98 0
-62 60 -98 0
-62 -60 98 0
64 63 66 0
64 -63 -66 0
-64 63 -66 0
-64 -63 66 0
65 63 101 0
65 -63 -101 0
-65 63 -101 0
-65 -63 101 0
67 66 69 0
67 -66 -69 0
-67 66 -69 0
-67 -66 69 0
68 66 104 0
68 -66 -104 0
-68 66 -104 0
-68 -66 104 0
70 69 72 0
70 -69 -72 0
-70 69 -72 0
-70 -69 72 0
71 69 107 0
71 -69 -107 0
-71 69 -107 0
-71 -69 107 0
73 72 75 0
73 -72 -75 0
-73 72 -75 0
-73 -72 75 0
74 72 110 0
74 -72 -110 0
-74 72 -110 0
-74 -72 110 0
76 75 113 0
76 -75 -113 0
-76 75 -113 0
-76 -75 113 0
78 77 80 0
78 -77 -80 0
-78 77 -80 0
-78 -77 80 0
79 77 115 0
79 -77 -115 0
-79 77 -115 0
-79 -77 115 0
81 80 83 0
81 -80 -83 0
-81 80 -83 0
-81 -80 83 0
82 80 118 0
82 -80 -118 0
-82 80 -118 0
-82 -80 118 0
84 83 86 0
84 -83 -86 0
-84 83 -86 0
-84 -83 86 0
85 83 121 0
85 -83 -121 0
-85 83 -121 0
-85 -83 121 0
87 86 89 0
87 -86 -89 0
-87 86 -89 0
-87 -86 89 0
88 86 124 0
88 -86 -124 0
-88 86 -124 0
-88 -86 124 0
90 89 92 0
90 -89 -92 0
-90 89 -92 0
-90 -89 92 0
91 89 127 0
91 -89 -127 0
-91 89 -127 0
-91 -89 127 0
93 92 95 0
93 -92 -95 0
-93 92 -95 0
-93 -92 95 0
94 92 130 0
94 -92 -130 0
-94 92 -130 0
-94 -92 130 0
96 95 98 0
96 -95 -98 0
-96 95 -98 0
-96 -95 98 0
97 95 133 0
97 -95 -133 0
-97 95 -133 0
-97 -95 133 0
99 98 101 0
99 -98 -101 0
-99 98 -101 0
-99 -98 101 0
100 98 136 0
100 -98 -136 0
-100 98 -136 0
-100 -98 136 0
102 101 104 0
102 -101 -104 0
-102 101 -104 0
-102 -101 104 0
103 101 139 0
103 -101 -139 0
-103 101 -139 0
-103 -101 139 0
105 104 107 0
105 -104 -107 0
-105 104 -107 0
-105 -104 107 0
106 104 142 0
106 -104 -142 0
-106 104 -142 0
-106 -104 142 0
108 107 110 0
108 -107 -110 0
-108 107 -110 0
-108 -107 110 0
109 107 145 0
109 -107 -145 0
-109 107 -145 0
-109 -107 145 0
111 110 113 0
111 -110 -113 0
-111 110 -113 0
-111 -110 113 0
112 110 148 0
112 -110 -148 0
-112 110 -148 0
-112 -110 148 0
114 113 151 0
114 -113 -151 0
-114 113 -151 0
-114 -113 151 0
116 115 118 0
116 -115 -118 0
-116 115 -118 0
-116 -115 118 0
117 115 153 0
117 -115 -153 0
-117 115 -153 0
-117 -115 153 0
119 118 121 0
119 -118 -121 0
-119 118 -121 0
-119 -118 121 0
120 118 156 0
120 -118 -156 0
-120 118 -156 0
-120 -118 156 0
122 121 124 0
122 -121 -124 0
-122 121 -124 0
-122 -121 124 0
123 121 159 0
123 -121 -159 0
-123 121 -159 0
-123 -121 159 0
125 124 127 0
125 -124 -127 0
-125 124 -127 0
-125 -124 127 0
126 124 162 0
126 -124 -162 0
-126 124 -162 0
-126 -124 162 0
128 127 130 0
128 -127 -130 0
-128 127 -130 0
-128 -127 130 0
129 127 165 0
129 -127 -165 0
-129 127 -165 0
-129 -127 165 0
131 130 133 0
131 -130 -133 0
-131 130 -133 0
-131 -130 133 0
132 130 168 0
132 -130 -168 0
-132 130 -168 0
-132 -130 168 0
134 133 136 0
134 -133 -136 0
-134 133 -136 0
-134 -133 136 0
135 133 171 0
135 -133 -171 0
-135 133 -171 0
-135 -133 171 0
137 136 139 0
137 -136 -139 0
-137 136 -139 0
-137 -136 139 0
138 136 174 0
138 -136 -174 0
-138 136 -174 0
-138 -136 174 0
140 139 142 0
140 -139 -142 0
-140 139 -142 0
-140 -139 142 0
141 139 177 0
141 -139 -177 0
-141 139 -177 0
-141 -139 177 0
143 142 145 0
143 -142 -145 0
-143 142 -145 0
-143 -142 145 0
144 142 180 0
144 -142 -180 0
-144 142 -180 0
-144 -142 180 0
146 145 148 0
146 -145 -148 0
-146 145 -148 0
-146 -145 148 0
147 145 183 0
147 -145 -183 0
-147 145 -183 0
-147 -145 183 0
149 148 151 0
149 -148 -151 0
-149 148 -151 0
-149 -148 151 0
150 148 186 0
150 -148 -186 0
-150 148 -186 0
-150 -148 186 0
152 151 189 0
152 -151 -189 0
-152 151 -189 0
-152 -151 189 0
154 153 156 0
154 -153 -156 0
-154 153 -156 0
-154 -153 156 0
155 153 191 0
155 -153 -191 0
-155 153 -191 0
-155 -153 191 0
157 156 159 0
157 -156 -159 0
-157 156 -159 0
-157 -156 159 0
158 156 194 0
158 -156 -194 0
-158 156 -194 0
-158 -156 194 0
160 159 162 0
160 -159 -162 0
-160 159 -162 0
-160 -159 162 0
161 159 197 0
161 -159 -197 0
-161 159 -197 0
-161 -159 197 0
163 162 165 0
163 -162 -165 0
-163 162 -165 0
-163 -162 165 0
164 162 200 0
164 -162 -200 0
-164 162 -200 0
-164 -162 200 0
166 165 168 0
166 -165 -168 0
-166 165 -168 0
-166 -165 168 0
167 165 203 0
167 -165 -203 0
-167 165 -203 0
-167 -165 203 0
169 168 171 0
169 -168 -171 0
-169 168 -171 0
-169 -168 171 0
170 168 206 0
170 -168 -206 0
-170 168 -206 0
-170 -168 206 0
172 171 174 0
172 -171 -174 0
-172 171 -174 0
-172 -171 174 0
173 171 209 0
173 -171 -209 0
-173 171 -209 0
-173 -171 209 0
175 174 177 0
175 -174 -177 0
-175 174 -177 0
-175 -174 177 0
176 174 212 0
176 -174 -212 0
-176 174 -212 0
-176 -174 212 0
178 177 180 0
178 -177 -180 0
-178 177 -180 0
-178 -177 180 0
179 177 215 0
179 -177 -215 0
-179 177 -215 0
-179 -177 215 0
181 180 183 0
181 -180 -183 0
-181 180 -183 0
-181 -180 183 0
182 180 218 0
182 -180 -218 0
-182 180 -218 0
-182 -180 218 0
184 183 186 0
184 -183 -186 0
-184 183 -186 0
-184 -183 186 0
185 183 221 0
185 -183 -221 0
-185 183 -221 0
-185 -183 221 0
187 186 189 0
187 -186 -189 0
-187 186 -189 0
-187 -186 189 0
188 186 224 0
188 -186 -224 0
-188 186 -224 0
-188 -186 224 0
190 189 227 0
190 -189 -227 0
-190 189 -227 0
-190 -189 227 0
192 191 194 0
192 -191 -194 0
-192 191 -194 0
-192 -191 194 0
193 191 229 0
193 -191 -229 0
-193 191 -229 0
-193 -191 229 0
195 194 197 0
195 -194 -197 0
-195 194 -197 0
-195 -194 197 0
196 194 232 0
196 -194 -232 0
-196 194 -232 0
-196 -194 232 0
198 197 200 0
198 -197 -200 0
-198 197 -200 0
-198 -197 200 0
199 197 235 0
199 -197 -235 0
-199 197 -235 0
-199 -197 235 0
201 200 203 0
201 -200 -203 0
-201 200 -203 0
-201 -200 203 0
202 200 238 0
202 -200 -238 0
-202 200 -238 0
-202 -200 238 0
204 203 206 0
204 -203 -206 0
-204 203 -206 0
-204 -203 206 0
205 203 241 0
205 -203 -241 0
-205 203 -241 0
-205 -203 241 0
207 206 209 0
207 -206 -209 0
-207 206 -209 0
-207 -206 209 0
208 206 244 0
208 -206 -244 0
-208 206 -244 0
-208 -206 244 0
210 209 212 0
210 -209 -212 0
-210 209 -212 0
-210 -209 212 0
211 209 247 0
211 -209 -247 0
-211 209 -247 0
-211 -209 247 0
213 212 215 0
213 -212 -215 0
-213 212 -215 0
-213 -212 215 0
214 212 250 0
214 -212 -250 0
-214 212 -250 0
-214 -212 250 0
216 215 218 0
216 -215 -218 0
-216 215 -218 0
-216 -215 218 0
217 215 253 0
217 -215 -253 0
-217 215 -253 0
-217 -215 253 0
219 218 221 0
219 -218 -221 0
-219 218 -221 0
-219 -218 221 0
220 218 256 0
220 -218 -256 0
-220 218 -256 0
-220 -218 256 0
222 221 224 0
222 -221 -224 0
-222 221 -224 0
-222 -221 224 0
223 221 259 0
223 -221 -259 0
-223 221 -259 0
-223 -221 259 0
225 224 227 0
225 -224 -227 0
-225 224 -227 0
-225 -224 227 0
226 224 262 0
226 -224 -262 0
-226 224 -262 0
-226 -224 262 0
228 227 265 0
228 -227 -265 0
-228 227 -265 0
-228 -227 265 0
230 229 232 0
230 -229 -232 0
-230 229 -232 0
-230 -229 232 0
231 229 267 0
231 -229 -267 0
-231 229 -267 0
-231 -229 267 0
233 232 235 0
233 -232 -235 0
-233 232 -235 0
-233 -232 235 0
234 232 270 0
234 -232 -270 0
-234 232 -270 0
-234 -232 270 0
236 235 238 0
236 -235 -238 0
-236 235 -238 0
-236 -235 238 0
237 235 273 0
237 -235 -273 0
-237 235 -273 0
-237 -235 273 0
239 238 241 0
239 -238 -241 0
-239 238 -241 0
-239 -238 241 0
240 238 276 0
240 -238 -276 0
-240 238 -276 0
-240 -238 276 0
242 241 244 0
242 -241 -244 0
-242 241 -244 0
-242 -241 244 0
243 241 279 0
243 -241 -279 0
-243 241 -279 0
-243 -241 279 0
245 244 247 0
245 -244 -247 0
-245 244 -247 0
-245 -244 247 0
246 244 282 0
246 -244 -282 0
-246 244 -282 0
-246 -244 282 0
248 247 250 0
248 -247 -250 0
-248 247 -250 0
-248 -247 250 0
249 247 285 0
249 -247 -285 0
-249 247 -285 0
-249 -247 285 0
251 250 253 0
251 -250 -253 0
-251 250 -253 0
-251 -250 253 0
252 250 288 0
252 -250 -288 0
-252 250 -288 0
-252 -250 288 0
254 253 256 0
254 -253 -256 0
-254 253 -256 0
-254 -253 256 0
255 253 291 0
255 -253 -291 0
-255 253 -291 0
-255 -253 291 0
257 256 259 0
257 -256 -259 0
-257 256 -259 0
-257 -256 259 0
258 256 294 0
258 -256 -294 0
-258 256 -294 0
-258 -256 294 0
260 259 262 0
260 -259 -262 0
-260 259 -262 0
-260 -259 262 0
261 259 297 0
261 -259 -297 0
-261 259 -297 0
-261 -259 297 0
263 262 265 0
263 -262 -265 0
-263 262 -265 0
-263 -262 265 0
264 262 300 0
264 -262 -300 0
-264 262 -300 0
-264 -262 300 0
266 265 303 0
266 -265 -303 0
-266 265 -303 0
-266 -265 303 0
268 267 270 0
268 -267 -270 0
-268 267 -270 0
-268 -267 270 0
269 267 305 0
269 -267 -305 0
-269 267 -305 0
-269 -267 305 0
271 270 273 0
271 -270 -273 0
-271 270 -273 0
-271 -270 273 0
272 270 308 0
272 -270 -308 0
-272 270 -308 0
-272 -270 308 0
274 273 276 0
274 -273 -276 0
-274 273 -276 0
-274 -273 276 0
275 273 311 0
275 -273 -311 0
-275 273 -311 0
-275 -273 311 0
277 276 279 0
277 -276 -279 0
-277 276 -279 0
-277 -276 279 0
278 276 314 0
278 -276 -314 0
-278 276 -314 0
-278 -276 314 0
280 279 282 0
280 -279 -282 0
-280 279 -282 0
-280 -279 282 0
281 279 317 0
281 -279 -317 0
-281 279 -317 0
-281 -279 317 0
283 282 285 0
283 -282 -285 0
-283 282 -285 0
-283 -282 285 0
284 282 320 0
284 -282 -320 0
-284 282 -320 0
-284 -282 320 0
286 285 288 0
286 -285 -288 0
-286 285 -288 0
-286 -285 288 0
287 285 323 0
287 -285 -323 0
-287 285 -323 0
-287 -285 323 0
289 288 291 0
289 -288 -291 0
-289 288 -291 0
-289 -288 291 0
290 288 326 0
290 -288 -326 0
-290 288 -326 0
-290 -288 326 0
292 291 294 0
292 -291 -294 0
-292 291 -294 0
-292 -291 294 0
293 291 329 0
293 -291 -329 0
-293 291 -329 0
-293 -291 329 0
295 294 297 0
295 -294 -297 0
-295 294 -297 0
-295 -294 297 0
296 294 332 0
296 -294 -332 0
-296 294 -332 0
-296 -294 332 0
298 297 300 0
298 -297 -300 0
-298 297 -300 0
-298 -297 300 0
299 297 335 0
299 -297 -335 0
-299 297 -335 0
-299 -297 335 0
301 300 303 0
301 -300 -303 0
-301 300 -303 0
-301 -300 303 0
302 300 338 0
302 -300 -338 0
-302 300 -338 0
-302 -300 338 0
304 303 341 0
304 -303 -341 0
-304 303 -341 0
-304 -303 341 0
306 305 308 0
306 -305 -308 0
-306 305 -308 0
-306 -305 308 0
307 305 343 0
307 -305 -343 0
-307 305 -343 0
-307 -305 343 0
309 308 311 0
309 -308 -311 0
-309 308 -311 0
-309 -308 311 0
310 308 346 0
310 -308 -346 0
-310 308 -346 0
-310 -308 346 0
312 311 314 0
312 -311 -314 0
-312 311 -314 0
-312 -311 314 0
313 311 349 0
313 -311 -349 0
-313 311 -349 0
-313 -311 349 0
315 314 317 0
315 -314 -317 0
-315 314 -317 0
-315 -314 317 0
316 314 352 0
316 -314 -352 0
-316 314 -352 0
-316 -314 352 0
318 317 320 0
318 -317 -320 0
-318 317 -320 0
-318 -317 320 0
319 317 355 0
319 -317 -355 0
-319 317 -355 0
-319 -317 355 0
321 320 323 0
321 -320 -323 0
-321 320 -323 0
-321 -320 323 0
322 320 358 0
322 -320 -358 0
-322 320 -358 0
-322 -320 358 0
324 323 326 0
324 -323 -326 0
-324 323 -326 0
-324 -323 326 0
325 323 361 0
325 -323 -361 0
-325 323 -361 0
-325 -323 361 0
327 326 329 0
327 -326 -329 0
-327 326 -329 0
-327 -326 329 0
328 326 364 0
328 -326 -364 0
-328 326 -364 0
-328 -326 364 0
330 329 332 0
330 -329 -332 0
-330 329 -332 0
-330 -329 332 0
331 329 367 0
331 -329 -367 0
-331 329 -367 0
-331 -329 367 0
333 332 335 0
333 -332 -335 0
-333 332 -335 0
-333 -332 335 0
334 332 370 0
334 -332 -370 0
-334 332 -370 0
-334 -332 370 0
336 335 338 0
336 -335 -338 0
-336 335 -338 0
-336 -335 338 0
337 335 373 0
337 -335 -373 0
-337 335 -373 0
-337 -335 373 0
339 338 341 0
339 -338 -341 0
-339 338 -341 0
-339 -338 341 0
340 338 376 0
340 -338 -376 0
-340 338 -376 0
-340 -338 376 0
342 341 379 0
342 -341 -379 0
-342 341 -379 0
-342 -341 379 0
344 343 346 0
344 -343 -346 0
-344 343 -346 0
-344 -343 346 0
345 343 381 0
345 -343 -381 0
-345 343 -381 0
-345 -343 381 0
347 346 349 0
347 -346 -349 0
-347 346 -349 0
-347 -346 349 0
348 346 384 0
348 -346 -384 0
-348 346 -384 0
-348 -346 384 0
350 349 352 0
350 -349 -352 0
-350 349 -352 0
-350 -349 352 0
351 349 387 0
351 -349 -387 0
-351 349 -387 0
-351 -349 387 0
353 352 355 0
353 -352 -355 0
-353 352 -355 0
-353 -352 355 0
354 352 390 0
354 -352 -390 0
-354 352 -390 0
-354 -352 390 0
356 355 358 0
356 -355 -358 0
-356 355 -358 0
-356 -355 358 0
357 355 393 0
357 -355 -393 0
-357 355 -393 0
-357 -355 393 0
359 358 361 0
359 -358 -361 0
-359 358 -361 0
-359 -358 361 0
360 358 396 0
360 -358 -396 0
-360 358 -396 0
-360 -358 396 0
362 361 364 0
362 -361 -364 0
-362 361 -364 0
-362 -361 364 0
363 361 399 0
363 -361 -399 0
-363 361 -399 0
-363 -361 399 0
365 364 367 0
365 -364 -367 0
-365 364 -367 0
-365 -364 367 0
366 364 402 0
366 -364 -402 0
-366 364 -402 0
-366 -364 402 0
368 367 370 0
368 -367 -370 0
-368 367 -370 0
-368 -367 370 0
369 367 405 0
369 -367 -405 0
-369 367 -405 0
-369 -367 405 0
371 370 373 0
371 -370 -373 0
-371 370 -373 0
-371 -370 373 0
372 370 408 0
372 -370 -408 0
-372 370 -408 0
-372 -370 408 0
374 373 376 0
374 -373 -376 0
-374 373 -376 0
-374 -373 376 0
375 373 411 0
375 -373 -411 0
-375 373 -411 0
-375 -373 411 0
377 376 379 0
377 -376 -379 0
-377 376 -379 0
-377 -376 379 0
378 376 414 0
378 -376 -414 0
-378 376 -414 0
-378 -376 414 0
380 379 417 0
380 -379 -417 0
-380 379 -417 0
-380 -379 417 0
382 381 384 0
382 -381 -384 0
-382 381 -384 0
-382 -381 384 0
383 381 419 0
383 -381 -419 0
-383 381 -419 0
-383 -381 419 0
385 384 387 0
385 -384 -387 0
-385 384 -387 0
-385 -384 387 0
386 384 422 0
386 -384 -422 0
-386 384 -422 0
-386 -384 422 0
388 387 390 0
388 -387 -390 0
-388 387 -390 0
-388 -387 390 0
389 387 425 0
389 -387 -425 0
-389 387 -425 0
-389 -387 425 0
391 390 393 0
391 -390 -393 0
-391 390 -393 0
-391 -390 393 0
392 390 428 0
392 -390 -428 0
-392 390 -428 0
-392 -390 428 0
394 393 396 0
394 -393 -396 0
-394 393 -396 0
-394 -393 396 0
395 393 431 0
395 -393 -431 0
-395 393 -431 0
-395 -393 431 0
397 396 399 0
397 -396 -399 0
-397 396 -399 0
-397 -396 399 0
398 396 434 0
398 -396 -434 0
-398 396 -434 0
-398 -396 434 0
400 399 402 0
400 -399 -402 0
-400 399 -402 0
-400 -399 402 0
401 399 437 0
401 -399 -437 0
-401 399 -437 0
-401 -399 437 0
403 402 405 0
403 -402 -405 0
-403 402 -405 0
-403 -402 405 0
404 402 440 0
404 -402 -440 0
-404 402 -440 0
-404 -402 440 0
406 405 408 0
406 -405 -408 0
-406 405 -408 0
-406 -405 408 0
407 405 443 0
407 -405 -443 0
-407 405 -443 0
-407 -405 443 0
409 408 411 0
409 -408 -411 0
-409 408 -411 0
-409 -408 411 0
410 408 446 0
410 -408 -446 0
-410 408 -446 0
-410 -408 446 0
412 411 414 0
412 -411 -414 0
-412 411 -414 0
-412 -411 414 0
413 411 449 0
413 -411 -449 0
-413 411 -449 0
-413 -411 449 0
415 414 417 0
415 -414 -417 0
-415 414 -417 0
-415 -414 417 0
416 414 452 0
416 -414 -452 0
-416 414 -452 0
-416 -414 452 0
418 417 455 0
418 -417 -455 0
-418 417 -455 0
-418 -417 455 0
420 419 422 0
420 -419 -422 0
-420 419 -422 0
-420 -419 422 0
421 419 457 0
421 -419 -457 0
-421 419 -457 0
-421 -419 457 0
423 422 425 0
423 -422 -425 0
-423 422 -425 0
-423 -422 425 0
424 422 459 0
424 -422 -459 0
-424 422 -459 0
-424 -422 459 0
426 425 428 0
426 -425 -428 0
-426 425 -428 0
-426 -425 428 0
427 425 461 0
427 -425 -461 0
-427 425 -461 0
-427 -425 461 0
429 428 431 0
429 -428 -431 0
-429 428 -431 0
-429 -428 431 0
430 428 463 0
430 -428 -463 0
-430 428 -463 0
-430 -428 463 0
432 431 434 0
432 -431 -434 0
-432 431 -434 0
-432 -431 434 0
433 431 465 0
433 -431 -465 0
-433 431 -465 0
-433 -431 465 0
435 434 437 0
435 -434 -437 0
-435 434 -437 0
-435 -434 437 0
436 434 467 0
436 -434 -467 0
-436 434 -467 0
-436 -434 467 0
438 437 440 0
438 -437 -440 0
-438 437 -440 0
-438 -437 440 0
439 437 469 0
439 -437 -469 0
-439 437 -469 0
-439 -437 469 0
441 440 443 0
441 -440 -443 0
-441 440 -443 0
-441 -440 443 0
442 440 471 0
442 -440 -471 0
-442 440 -471 0
-442 -440 471 0
444 443 446 0
444 -443 -446 0
-444 443 -446 0
-444 -443 446 0
445 443 473 0
445 -443 -473 0
-445 443 -473 0
-445 -443 473 0
447 446 449 0
447 -446 -449 0
-447 446 -449 0
-447 -446 449 0
448 446 475 0
448 -446 -475 0
-448 446 -475 0
-448 -446 475 0
450 449 452 0
450 -449 -452 0
-450 449 -452 0
-450 -449 452 0
451 449 477 0
451 -449 -477 0
-451 449 -477 0
-451 -449 477 0
453 452 455 0
453 -452 -455 0
-453 452 -455 0
-453 -452 455 0
454 452 479 0
454 -452 -479 0
-454 452 -479 0
-454 -452 479 0
456 455 481 0
456 -455 -481 0
-456 455 -481 0
-456 -455 481 0
458 457 459 0
458 -457 -459 0
-458 457 -459 0
-458 -457 459 0
460 459 461 0
460 -459 -461 0
-460 459 -461 0
-460 -459 461 0
462 461 463 0
462 -461 -463 0
-462 461 -463 0
-462 -461 463 0
464 463 465 0
464 -463 -465 0
-464 463 -465 0
-464 -463 465 0
466 465 467 0
466 -465 -467 0
-466 465 -467 0
-466 -465 467 0
468 467 469 0
468 -467 -469 0
-468 467 -469 0
-468 -467 469 0
470 469 471 0
470 -469 -471 0
-470 469 -471 0
-470 -469 471 0
472 471 473 0
472 -471 -473 0
-472 471 -473 0
-472 -471 473 0
474 473 475 0
474 -473 -475 0
-474 473 -475 0
-474 -473 475 0
476 475 477 0
476 -475 -477 0
-476 475 -477 0
-476 -475 477 0
478 477 479 0
478 -477 -479 0
-478 477 -479 0
-478 -477 479 0
480 479 481 0
480 -479 -481 0
-480 479 -481 0
-480 -479 481 0
